25 2
25 1000
10
7
13
19
26
3
5
9
16
16
12
19
23
20
8
19
2
12
17
9
11
18
29
3
6
35 35 0 1000 0 0
41 49 0 974 10 1
35 17 0 972 10 2
55 45 0 967 10 1
55 20 678 801 10 1
15 30 0 969 10 1
25 30 415 514 10 3
20 50 0 968 10 1
10 43 404 481 10 1
55 60 400 497 10 3
30 60 577 632 10 3
20 65 206 325 10 3
50 35 0 975 10 3
30 25 690 827 10 2
15 10 32 243 10 2
30 5 175 300 10 3
10 20 272 373 10 1
5 30 733 870 10 3
20 40 377 434 10 1
15 60 269 378 10 1
45 65 581 666 10 2
45 20 0 971 10 3
45 10 409 494 10 1
55 5 206 325 10 1
65 35 704 847 10 2
65 20 817 956 10 2
28 38 0 1000 5 4
54 65 0 1000 5 4
0 0
1 0
0 0
0 0
0 0
1 0
0 0
0 0
0 1
1 0
1 0
1 0
1 0
1 0
1 0
0 0
1 0
0 0
0 0
0 1
1 0
0 0
0 0
0 1
1 0
